words_hard_train/4452.qaiger
aag 124 24 0 1 100
2
4
8
10
22
24
36
38
50
52
64
66
78
80
128
136
138
146
172
180
192
204
216
228
249
6 2 4
12 9 11
14 8 10
16 13 15
18 6 16
20 19 15
26 23 25
28 22 24
30 27 29
32 21 30
34 33 29
40 37 39
42 36 38
44 41 43
46 35 44
48 47 43
54 51 53
56 50 52
58 55 57
60 49 58
62 61 57
68 65 67
70 64 66
72 69 71
74 63 72
76 75 71
82 79 81
84 78 80
86 83 85
88 76 87
90 77 86
92 89 91
94 62 73
96 95 75
98 20 31
100 99 33
102 7 17
104 103 19
106 100 104
108 34 45
110 109 47
112 106 110
114 48 59
116 115 61
118 112 116
120 96 118
122 92 120
124 93 121
126 123 125
130 127 128
132 126 129
134 131 133
140 137 138
142 136 139
144 141 143
148 144 147
150 145 146
152 149 151
154 91 85
156 153 155
158 152 154
160 157 159
162 161 125
164 160 124
166 163 165
168 107 111
170 169 113
174 171 172
176 3 5
178 177 7
182 178 181
184 179 180
186 183 185
188 170 173
190 186 189
194 105 193
196 104 192
198 195 197
200 113 117
202 201 119
206 203 204
208 198 207
210 190 208
212 97 119
214 213 121
218 215 216
220 210 219
222 175 220
224 101 105
226 225 107
230 227 228
232 226 229
234 231 233
236 202 205
238 234 237
240 214 217
242 238 241
244 222 242
246 166 244
248 135 246
i0 1 x1[0]
i1 2 y2[0]
i2 1 x1[1]
i3 2 y2[1]
i4 1 x1[2]
i5 2 y2[2]
i6 1 x1[3]
i7 2 y2[3]
i8 1 x1[4]
i9 2 y2[4]
i10 1 x1[5]
i11 2 y2[5]
i12 1 x1[6]
i13 2 y2[6]
i14 2 y1[6]
i15 2 y1[7]
i16 1 x1[7]
i17 2 y2[7]
i18 2 y1[3]
i19 2 y1[0]
i20 2 y1[1]
i21 2 y1[4]
i22 2 y1[5]
i23 2 y1[2]
o0 bool[0]
c
simplified
  !=
    add
      reverse
        67
      add
        1 x1
        2 y2
    2 y1
