words_hard_train/4452.qaiger.qdimacs
p cnf 124 301
a 32 1 4 69 39 11 18 25 0
e 2 3 5 6 7 8 9 10 12 13 14 15 16 17 19 20 21 22 23 24 26 27 28 29 30 31 33 34 35 36 37 38 40 41 42 43 44 45 46 47 48 49 50 51 52 53 54 55 56 57 58 59 60 61 62 63 64 65 66 67 68 70 71 72 73 74 75 76 77 78 79 80 81 82 83 84 85 86 87 88 89 90 91 92 93 94 95 96 97 98 99 100 101 102 103 104 105 106 107 108 109 110 111 112 113 114 115 116 117 118 119 120 121 122 123 124 0
-1 -2 3 0
1 -3 0
2 -3 0
4 5 6 0
-4 -6 0
-5 -6 0
-4 -5 7 0
4 -7 0
5 -7 0
6 7 8 0
-6 -8 0
-7 -8 0
-3 -8 9 0
3 -9 0
8 -9 0
9 7 10 0
-9 -10 0
-7 -10 0
11 12 13 0
-11 -13 0
-12 -13 0
-11 -12 14 0
11 -14 0
12 -14 0
13 14 15 0
-13 -15 0
-14 -15 0
10 -15 16 0
-10 -16 0
15 -16 0
16 14 17 0
-16 -17 0
-14 -17 0
18 19 20 0
-18 -20 0
-19 -20 0
-18 -19 21 0
18 -21 0
19 -21 0
20 21 22 0
-20 -22 0
-21 -22 0
17 -22 23 0
-17 -23 0
22 -23 0
23 21 24 0
-23 -24 0
-21 -24 0
25 26 27 0
-25 -27 0
-26 -27 0
-25 -26 28 0
25 -28 0
26 -28 0
27 28 29 0
-27 -29 0
-28 -29 0
24 -29 30 0
-24 -30 0
29 -30 0
30 28 31 0
-30 -31 0
-28 -31 0
32 33 34 0
-32 -34 0
-33 -34 0
-32 -33 35 0
32 -35 0
33 -35 0
34 35 36 0
-34 -36 0
-35 -36 0
31 -36 37 0
-31 -37 0
36 -37 0
37 35 38 0
-37 -38 0
-35 -38 0
39 40 41 0
-39 -41 0
-40 -41 0
-39 -40 42 0
39 -42 0
40 -42 0
41 42 43 0
-41 -43 0
-42 -43 0
-38 43 44 0
38 -44 0
-43 -44 0
38 -43 45 0
-38 -45 0
43 -45 0
44 45 46 0
-44 -46 0
-45 -46 0
-31 36 47 0
31 -47 0
-36 -47 0
47 37 48 0
-47 -48 0
-37 -48 0
-10 15 49 0
10 -49 0
-15 -49 0
49 16 50 0
-49 -50 0
-16 -50 0
3 8 51 0
-3 -51 0
-8 -51 0
51 9 52 0
-51 -52 0
-9 -52 0
-50 -52 53 0
50 -53 0
52 -53 0
-17 22 54 0
17 -54 0
-22 -54 0
54 23 55 0
-54 -55 0
-23 -55 0
-53 -55 56 0
53 -56 0
55 -56 0
-24 29 57 0
24 -57 0
-29 -57 0
57 30 58 0
-57 -58 0
-30 -58 0
-56 -58 59 0
56 -59 0
58 -59 0
-48 -59 60 0
48 -60 0
59 -60 0
-46 -60 61 0
46 -61 0
60 -61 0
46 60 62 0
-46 -62 0
-60 -62 0
61 62 63 0
-61 -63 0
-62 -63 0
63 -64 65 0
-63 -65 0
64 -65 0
-63 64 66 0
63 -66 0
-64 -66 0
65 66 67 0
-65 -67 0
-66 -67 0
68 -69 70 0
-68 -70 0
69 -70 0
-68 69 71 0
68 -71 0
-69 -71 0
70 71 72 0
-70 -72 0
-71 -72 0
-72 73 74 0
72 -74 0
-73 -74 0
72 -73 75 0
-72 -75 0
73 -75 0
74 75 76 0
-74 -76 0
-75 -76 0
45 42 77 0
-45 -77 0
-42 -77 0
76 77 78 0
-76 -78 0
-77 -78 0
-76 -77 79 0
76 -79 0
77 -79 0
78 79 80 0
-78 -80 0
-79 -80 0
80 62 81 0
-80 -81 0
-62 -81 0
-80 -62 82 0
80 -82 0
62 -82 0
81 82 83 0
-81 -83 0
-82 -83 0
53 55 84 0
-53 -84 0
-55 -84 0
84 56 85 0
-84 -85 0
-56 -85 0
85 -86 87 0
-85 -87 0
86 -87 0
1 2 88 0
-1 -88 0
-2 -88 0
88 3 89 0
-88 -89 0
-3 -89 0
-89 90 91 0
89 -91 0
-90 -91 0
89 -90 92 0
-89 -92 0
90 -92 0
91 92 93 0
-91 -93 0
-92 -93 0
-85 86 94 0
85 -94 0
-86 -94 0
-93 94 95 0
93 -95 0
-94 -95 0
52 96 97 0
-52 -97 0
-96 -97 0
-52 -96 98 0
52 -98 0
96 -98 0
97 98 99 0
-97 -99 0
-98 -99 0
56 58 100 0
-56 -100 0
-58 -100 0
100 59 101 0
-100 -101 0
-59 -101 0
101 -102 103 0
-101 -103 0
102 -103 0
-99 103 104 0
99 -104 0
-103 -104 0
-95 -104 105 0
95 -105 0
104 -105 0
48 59 106 0
-48 -106 0
-59 -106 0
106 60 107 0
-106 -107 0
-60 -107 0
107 -108 109 0
-107 -109 0
108 -109 0
-105 109 110 0
105 -110 0
-109 -110 0
87 -110 111 0
-87 -111 0
110 -111 0
50 52 112 0
-50 -112 0
-52 -112 0
112 53 113 0
-112 -113 0
-53 -113 0
113 -114 115 0
-113 -115 0
114 -115 0
-113 114 116 0
113 -116 0
-114 -116 0
115 116 117 0
-115 -117 0
-116 -117 0
-101 102 118 0
101 -118 0
-102 -118 0
-117 118 119 0
117 -119 0
-118 -119 0
-107 108 120 0
107 -120 0
-108 -120 0
-119 120 121 0
119 -121 0
-120 -121 0
-111 -121 122 0
111 -122 0
121 -122 0
-83 -122 123 0
83 -123 0
122 -123 0
67 -123 124 0
-67 -124 0
123 -124 0
-124 0
